\* Problem: Unknown *\

Minimize
 obj: - 1190 x_1 - 1200 x_2 - 1150 x_3 - 1190 x_4 - 1200 x_5 - 1150 x_6

Subject To
 r_1: + x_6 + x_5 + x_4 + x_3 + x_2 + x_1 = 0
 r_2: + x_4 + x_1 = 0
 r_3: + x_5 + x_2 = 0
 r_4: + x_6 + x_3 = 0
 r_5: + x_6 + x_5 + x_4 + x_3 + x_2 + x_1 >= 0
 r_6: + x_3 + x_2 + x_1 = 594.9
 r_7: + x_6 + x_3 >= 0
 r_8: + x_6 + x_5 + x_4 = 107.082

End
